
Welcome to IBM(R) ILOG(R) CPLEX(R) Interactive Optimizer 22.1.1.0
  with Simplex, Mixed Integer & Barrier Optimizers
5725-A06 5725-A29 5724-Y48 5724-Y49 5724-Y54 5724-Y55 5655-Y21
Copyright IBM Corp. 1988, 2022.  All Rights Reserved.

Type 'help' for a list of available commands.
Type 'help' followed by a command name for more
information on commands.

CPLEX> Selected objective sense:  MINIMIZE
Selected objective  name:  00000000
Selected RHS        name:  RHS1
Selected bound      name:  BOUND
Problem 'ee.mps' read.
Read time = 0.03 sec. (3.14 ticks)
CPLEX> New value for time limit in seconds: 7200
CPLEX> New value for parallel optimization mode: -1
CPLEX> New value for default parallel thread count: 40
CPLEX> New value for mixed integer optimality gap tolerance: 1e-13
CPLEX> Version identifier: 22.1.1.0 | 2022-11-28 | 9160aff4d
CPXPARAM_Threads                                 40
CPXPARAM_Parallel                                -1
CPXPARAM_TimeLimit                               7200
CPXPARAM_MIP_Tolerances_MIPGap                   1e-13
Found incumbent of value 0.000000 after 0.00 sec. (0.31 ticks)
Tried aggregator 3 times.
MIP Presolve eliminated 754 rows and 3849 columns.
MIP Presolve modified 5559 coefficients.
Aggregator did 629 substitutions.
Reduced MIP has 3133 rows, 6748 columns, and 24525 nonzeros.
Reduced MIP has 6748 binaries, 0 generals, 0 SOSs, and 0 indicators.
Presolve time = 0.07 sec. (74.61 ticks)
Probing fixed 52 vars, tightened 0 bounds.
Probing time = 0.06 sec. (24.26 ticks)
Tried aggregator 2 times.
Detecting symmetries...
MIP Presolve eliminated 11 rows and 62 columns.
Aggregator did 10 substitutions.
Reduced MIP has 3112 rows, 6673 columns, and 24244 nonzeros.
Reduced MIP has 6673 binaries, 0 generals, 0 SOSs, and 0 indicators.
Presolve time = 0.04 sec. (43.00 ticks)
Probing time = 0.03 sec. (8.31 ticks)
Clique table members: 15943.
MIP emphasis: balance optimality and feasibility.
MIP search method: dynamic search.
Parallel mode: opportunistic, using up to 40 threads.
Root relaxation solution time = 0.04 sec. (35.94 ticks)

        Nodes                                         Cuts/
   Node  Left     Objective  IInf  Best Integer    Best Bound    ItCnt     Gap

*     0+    0                            0.0000  -1.31000e+13              --- 
*     0+    0                      -5.39000e+12  -1.31000e+13           143.04%
*     0+    0                      -6.60000e+12  -1.31000e+13            98.48%
      0     0  -1.30900e+13    78  -6.60000e+12  -1.30900e+13     1123   98.33%
*     0+    0                      -9.79000e+12  -1.30900e+13            33.71%
*     0+    0                      -1.30900e+13  -1.30900e+13             0.00%
      0     0  -1.30900e+13    88  -1.30900e+13      Cuts: 74     2775    0.00%
*     0+    0                      -1.30900e+13  -1.30900e+13             0.00%
      0     0  -1.30900e+13   129  -1.30900e+13      Cuts: 72     2978    0.00%
      0    41        cutoff        -1.30900e+13  -1.30900e+13     6368    0.00%
Elapsed time = 1.96 sec. (1166.36 ticks, tree = 0.02 MB, solutions = 11)
    740    86  -1.30900e+13    44  -1.30900e+13  -1.30900e+13    13345    0.00%
   1786   314  -1.30900e+13   115  -1.30900e+13  -1.30900e+13    84560    0.00%
   2560   286  -1.30900e+13   167  -1.30900e+13  -1.30900e+13   103426    0.00%
   3004   326  -1.30900e+13   212  -1.30900e+13  -1.30900e+13   124177    0.00%
   3487   691        cutoff        -1.30900e+13  -1.30900e+13   273409    0.00%
   4298   949  -1.30900e+13    57  -1.30900e+13  -1.30900e+13   334775    0.00%
   5104   618  -1.30900e+13   122  -1.30900e+13  -1.30900e+13   244581    0.00%
   5946   905        cutoff        -1.30900e+13  -1.30900e+13   323560    0.00%
   6782   859  -1.30900e+13   111  -1.30900e+13  -1.30900e+13   314652    0.00%
   9117  1525        cutoff        -1.30900e+13  -1.30900e+13   492168    0.00%
Elapsed time = 7.89 sec. (4270.19 ticks, tree = 15.67 MB, solutions = 16)
  10977  2459        cutoff        -1.30900e+13  -1.30900e+13   747617    0.00%
  12364  2974  -1.30900e+13   105  -1.30900e+13  -1.30900e+13   914984    0.00%

Performing restart 1

Repeating presolve.
Tried aggregator 2 times.
MIP Presolve eliminated 310 rows and 1135 columns.
MIP Presolve added 4 rows and 0 columns.
MIP Presolve modified 1725 coefficients.
Aggregator did 149 substitutions.
Reduced MIP has 2607 rows, 5374 columns, and 19339 nonzeros.
Reduced MIP has 5374 binaries, 0 generals, 0 SOSs, and 0 indicators.
Presolve time = 0.06 sec. (56.32 ticks)
Tried aggregator 1 time.
MIP Presolve eliminated 10 rows and 15 columns.
Reduced MIP has 2597 rows, 5358 columns, and 19283 nonzeros.
Reduced MIP has 5358 binaries, 0 generals, 0 SOSs, and 0 indicators.
Presolve time = 0.03 sec. (21.72 ticks)
Represolve time = 0.21 sec. (116.44 ticks)
  13058     0  -1.30900e+13   205  -1.30900e+13      Cuts: 33  1176965    0.00%
  13058     0  -1.30900e+13   313  -1.30900e+13      Cuts: 44  1177219    0.00%
  13058     0  -1.30900e+13   283  -1.30900e+13      Cuts: 30  1177401    0.00%
  13058     0  -1.30900e+13   313  -1.30900e+13      Cuts: 45  1177670    0.00%
  13058     0  -1.30900e+13   338  -1.30900e+13      Cuts: 31  1177796    0.00%
  13058     0  -1.30900e+13   339  -1.30900e+13      Cuts: 39  1177924    0.00%
  13058     0  -1.30900e+13   311  -1.30900e+13      Cuts: 39  1178032    0.00%
  13058     0  -1.30900e+13   335  -1.30900e+13      Cuts: 38  1178160    0.00%
  13058     0  -1.30900e+13   330  -1.30900e+13      Cuts: 34  1178284    0.00%
  13058     0  -1.30900e+13   332  -1.30900e+13      Cuts: 41  1178350    0.00%
  13058     0  -1.30900e+13   326  -1.30900e+13      Cuts: 25  1178459    0.00%
  13058     0  -1.30900e+13   367  -1.30900e+13      Cuts: 24  1178615    0.00%
  13058     0  -1.30900e+13   368  -1.30900e+13      Cuts: 26  1178763    0.00%
  13058     0  -1.30900e+13   375  -1.30900e+13      Cuts: 23  1178871    0.00%
  13058    10        cutoff        -1.30900e+13  -1.30900e+13  1182571    0.00%
* 13254    10      integral     0  -1.30900e+13  -1.30900e+13  1190846    0.00%
  13259    11  -1.30900e+13   333  -1.30900e+13  -1.30900e+13  1188000    0.00%
  13284     7  -1.30900e+13   168  -1.30900e+13  -1.30900e+13  1181143    0.00%

GUB cover cuts applied:  5
Clique cuts applied:  10
Cover cuts applied:  330
Mixed integer rounding cuts applied:  21
Zero-half cuts applied:  76
Gomory fractional cuts applied:  15

Root node processing (before b&c):
  Real time             =    1.26 sec. (1158.55 ticks)
Parallel b&c, 40 threads:
  Real time             =   14.83 sec. (10649.79 ticks)
  Sync time (average)   =    2.82 sec.
  Wait time (average)   =    0.11 sec.
                          ------------
Total (root+branch&cut) =   16.10 sec. (11808.33 ticks)

Solution pool: 17 solutions saved.

MIP - Integer optimal solution:  Objective = -1.3089999090e+13
Solution time =   16.21 sec.  Iterations = 1193091  Nodes = 13298
Deterministic time = 11808.37 ticks  (728.63 ticks/sec)

CPLEX> Solution 'p18' written to file 'ee.sol'.
CPLEX> 